CRYSTAL
PRIMVEC
 25.00000000 0.00000000 0.00000000
 0.00000000 25.00000000 0.00000000
 0.00000000 0.00000000 80.35052001
PRIMCOORD
 106 1
 34 12.49800000 14.47000000 0.00000000
 34 10.79500000 11.52000000 0.00000000
 34 14.19800000 11.52100000 0.00000000
 23 12.49800000 12.50000000 1.55785000
 34 12.49800000 14.47000000 3.11570000
 34 10.79500000 11.52000000 3.11570000
 34 14.19800000 11.52100000 3.11570000
 23 12.49800000 12.50000000 4.67355000
 34 10.79345486 11.52460009 6.23193120
 34 14.19684014 11.52260934 6.23199348
 34 12.49725030 14.46920097 6.23221689
 23 12.49566426 12.50481948 7.79853381
 34 14.19704714 11.52193114 9.34290063
 34 12.49814518 14.46868208 9.34361111
 34 10.79362874 11.52431114 9.34376132
 23 12.49669113 12.50452890 10.93581643
 34 12.49905767 14.47155739 12.44754222
 34 14.20048084 11.52262224 12.44792321
 34 10.79245580 11.52403882 12.44853741
 23 12.49718607 12.50622954 14.07243852
 34 14.20166357 11.52319102 15.55455552
 34 12.49885386 14.47395335 15.55489186
 34 10.79287243 11.52444832 15.55573839
 23 12.49827812 12.50748789 17.21658306
 34 14.20404187 11.52346709 18.65847128
 34 10.79295076 11.52424287 18.65943218
 34 12.49929974 14.47573465 18.66019389
 23 12.49942696 12.50676411 20.36804229
 34 10.79492002 11.52386609 21.78622856
 34 14.20410365 11.52417888 21.78641285
 34 12.50009330 14.47194876 21.78851671
 23 12.49967209 12.50362607 23.52080496
 34 10.82024497 11.53035405 24.95108474
 34 12.49888349 14.44266230 24.95284023
 34 14.17664142 11.52841925 24.95305528
 23 12.49788101 12.50020358 26.76487212
 34 10.69202580 11.45939208 28.10056807
 34 12.49912008 14.58373965 28.10318316
 34 14.30070566 11.45832741 28.10357783
 1 11.19353555 11.74283050 29.50302224
 1 12.50593329 14.00643534 29.50501530
 1 13.80472001 11.75447727 29.50582301
 72 12.50113730 12.50010817 33.28749974
 72 12.49699417 12.49639552 37.57519991
 34 10.91865525 13.41160953 35.47894508
 34 12.50226363 10.67459233 35.47788553
 34 14.07890370 13.41491520 35.48070331
 34 10.80662300 11.51552420 31.67818417
 34 14.20160678 11.52140030 31.67978101
 34 12.50233132 14.45987623 31.67737710
 34 10.38199748 11.28380508 38.43267418
 34 14.61098413 11.28151953 38.43347603
 34 12.50103710 14.93580240 38.43484677
 72 12.49433545 12.49547477 42.76968238
 72 12.50234755 12.50215578 47.06067318
 34 10.91836448 13.40889825 44.86768087
 34 12.50291427 10.67636230 44.86968238
 34 14.08026157 13.41184530 44.86402099
 34 10.38140353 11.28262957 41.90903172
 34 14.61063330 11.28246150 41.91088511
 34 12.50089465 14.93502362 41.91140282
 34 10.80765425 11.51479328 48.66717983
 34 14.20226508 11.52069210 48.66667989
 34 12.50308287 14.46212982 48.66944265
 1 12.50405875 14.74243460 40.17401658
 1 10.54687740 11.38477912 40.17181890
 1 14.44660983 11.38229280 40.17412074
 1 13.80430397 11.75477598 50.84376659
 1 12.50676570 14.00684975 50.84499662
 1 11.19325799 11.74354401 50.84684599
 34 14.30037236 11.45886353 52.24604108
 34 12.49841952 14.58414620 52.24676003
 34 10.69170180 11.45921377 52.24907416
 23 12.49722649 12.50043190 53.58474806
 34 14.17567644 11.52795933 55.39643636
 34 12.49815560 14.44225982 55.39668544
 34 10.81898643 11.53087665 55.39820476
 23 12.49867510 12.50321030 56.82874996
 34 12.49994433 14.47155444 58.56123567
 34 14.20244192 11.52263253 58.56299230
 34 10.79379029 11.52383488 58.56315186
 23 12.49863725 12.50642040 59.98145585
 34 12.49984805 14.47562979 61.68937910
 34 10.79228842 11.52469411 61.69030457
 34 14.20356343 11.52344542 61.69083872
 23 12.49807464 12.50754404 63.13293182
 34 10.79273896 11.52482189 64.79448369
 34 12.49894919 14.47397807 64.79506102
 34 14.20147532 11.52313677 64.79519373
 23 12.49727309 12.50637340 66.27728603
 34 10.79268301 11.52434602 67.90216026
 34 14.20020315 11.52266406 67.90282792
 34 12.49898413 14.47176324 67.90332013
 23 12.49677896 12.50497612 69.41437853
 34 10.79399616 11.52455622 71.00772080
 34 12.49855418 14.46912760 71.00813451
 34 14.19741749 11.52280170 71.00844868
 23 12.49589944 12.50518266 72.55185743
 34 12.49800000 14.47000000 74.11912001
 34 10.79500000 11.52000000 74.11912001
 34 14.19800000 11.52100000 74.11912001
 23 12.49800000 12.50000000 75.67697001
 34 12.49800000 14.47000000 77.23482001
 34 10.79500000 11.52000000 77.23482001
 34 14.19800000 11.52100000 77.23482001
 23 12.49800000 12.50000000 78.79267001
